# Cost: 723

# Tail Head Net
 33  34 1
 33  73 1
 34  35 1
 73 113 1
 35  36 1
 36  37 1
 37  38 1
 38  39 1
 39  40 1
113 153 1
152 192 1
153 152 1
192 232 1
231 271 1
232 231 1
270 310 1
271 270 1
310 350 1
350 390 1
390 430 1
430 470 1
470 510 1
510 550 1
548 588 1
549 548 1
550 549 1
550 590 1
588 628 1
590 591 1
591 592 1
592 593 1
593 594 1
594 595 1
595 596 1
596 597 1
597 598 1
598 599 1
599 600 1
628 668 1
667 707 1
668 667 1
707 747 1
745 785 1
746 745 1
747 746 1
785 825 1
825 865 1
865 905 1
903 943 1
904 903 1
905 904 1
941 981 1
942 941 1
943 942 1
962 961 1
963 962 1
964 963 1
965 964 1
966 965 1
967 966 1
968 967 1
969 968 1
970 969 1
971 970 1
972 971 1
973 972 1
974 973 1
975 974 1
976 975 1
977 976 1
978 977 1
979 978 1
980 979 1
981 980 1
981 1021 1
1021 1061 1
1061 1101 1
1101 1141 1
1141 1181 1
1181 1221 1
1221 1261 1
1261 1301 1
1301 1341 1
1341 1381 1
1381 1421 1
1421 1461 1
1461 1501 1
1501 1541 1
1541 1581 1
 17  16 2
 18  17 2
 19  18 2
 20  19 2
 60  20 2
 61  60 2
101  61 2
141 101 2
181 141 2
221 181 2
261 221 2
301 261 2
341 301 2
381 341 2
421 381 2
461 421 2
501 461 2
541 501 2
581 541 2
621 581 2
661 621 2
701 661 2
741 701 2
781 741 2
821 781 2
2421 821 2
2461 2421 2
2501 2461 2
2541 2501 2
2581 2541 2
2581 2582 2
2582 2583 2
2583 2584 2
2584 2585 2
2585 2586 2
2586 2587 2
2587 2588 2
2588 2589 2
2589 2590 2
2590 4190 2
2600 1000 2
2621 2581 2
1161 1162 2
1162 2762 2
2762 2763 2
2763 2764 2
2764 4364 2
3169 1569 2
4190 4191 2
4191 4192 2
4192 4193 2
4193 4194 2
4194 4195 2
4195 4196 2
4196 4197 2
4197 4198 2
4198 4199 2
4199 4200 2
4200 2600 2
4218 4219 2
4219 4220 2
4220 4221 2
4221 2621 2
4258 4218 2
4298 4258 2
4337 4338 2
4338 4298 2
4364 4365 2
4365 4366 2
4366 4367 2
4367 4368 2
4368 4369 2
4369 4370 2
4369 4409 2
4370 4371 2
4371 4372 2
4372 4373 2
4373 4374 2
4374 4375 2
4375 4376 2
4376 4377 2
4377 4337 2
4409 4449 2
4449 4489 2
4489 4529 2
4529 4569 2
4569 4609 2
4609 4649 2
4649 4689 2
4689 4729 2
4729 4769 2
4769 3169 2
 23  63 3
 63 103 3
103 143 3
143 183 3
183 184 3
184 185 3
185 186 3
186 187 3
187 188 3
188 189 3
189 229 3
229 269 3
269 309 3
309 349 3
320 280 3
349 1949 3
360 320 3
1949 1950 3
1949 1989 3
1950 1951 3
1951 1952 3
1952 1953 3
1953 1954 3
1954 1955 3
1955 1956 3
1956 1957 3
1957 1958 3
1958 1959 3
1959 1960 3
1960 360 3
1989 3589 3
2521 921 3
3000 1400 3
3197 1597 3
3589 3629 3
3629 3669 3
3669 3709 3
3709 3749 3
3749 3789 3
3789 3829 3
3829 3869 3
3869 3909 3
3909 3949 3
3949 3989 3
3989 4029 3
4029 4069 3
4069 4109 3
4109 4149 3
4121 2521 3
4122 4121 3
4123 4122 3
4124 4123 3
4125 4124 3
4126 4125 3
4127 4126 3
4128 4127 3
4129 4128 3
4130 4129 3
4131 4130 3
4132 4131 3
4133 4132 3
4134 4133 3
4135 4134 3
4136 4135 3
4137 4136 3
4138 4137 3
4139 4138 3
4149 4189 3
4179 4139 3
4180 4179 3
4181 4180 3
4182 4181 3
4183 4182 3
4184 4183 3
4185 4184 3
4186 4185 3
4187 4186 3
4188 4187 3
4189 4188 3
4189 4229 3
4229 4230 3
4230 4231 3
4231 4271 3
4271 4272 3
4272 4312 3
4312 4352 3
4352 4353 3
4353 4393 3
4393 4433 3
4433 4473 3
4473 4513 3
4513 4553 3
4553 4554 3
4554 4555 3
4555 4556 3
4556 4557 3
4557 4597 3
4597 4598 3
4597 4637 3
4598 4599 3
4599 4600 3
4600 3000 3
4637 4677 3
4677 4717 3
4717 4757 3
4757 4797 3
4797 3197 3
  5   4 4
  6   5 4
1606   6 4
1607 1606 4
1608 1607 4
1609 1608 4
1610 1609 4
1611 1610 4
1612 1611 4
1613 1612 4
1614 1613 4
1615 1614 4
1616 1615 4
1617 1616 4
1618 1617 4
1619 1618 4
1620 1619 4
1621 1620 4
1622 1621 4
 24 1624 4
1623 1622 4
 25  24 4
1624 1623 4
 26  25 4
 27  26 4
 28  27 4
 29  28 4
 29  69 4
 30  29 4
 69 109 4
109 149 4
149 1749 4
1748 1788 4
1749 1748 4
1788 1828 4
1828 1868 4
1868 1908 4
1908 1948 4
1948 1988 4
1988 2028 4
2028 2068 4
2068 2108 4
2108 2148 4
2148 2188 4
2188 2228 4
2228 2268 4
2268 2308 4
2308 2348 4
2348 2388 4
2388 2428 4
2428 2468 4
2468 2508 4
948 988 4
2508 2548 4
988 1028 4
2548 948 4
1028 1068 4
1068 1108 4
1108 1148 4
1148 1188 4
1188 1228 4
1228 1229 4
1228 1268 4
1229 1230 4
1230 1231 4
1231 1232 4
1232 1233 4
1233 1234 4
1234 1235 4
1235 1236 4
1236 1237 4
1237 1238 4
1238 1239 4
1239 1240 4
1268 1308 4
1268 2868 4
2841 1241 4
2842 2841 4
2843 2842 4
2844 2843 4
2845 2844 4
2846 2845 4
2847 2846 4
2848 2847 4
2849 2848 4
2850 2849 4
2851 2850 4
2852 2851 4
2853 2852 4
2854 2853 4
2855 2854 4
2856 2855 4
2857 2856 4
2858 2857 4
2859 2858 4
2860 2859 4
2861 2860 4
2862 2861 4
2863 2862 4
2864 2863 4
2865 2864 4
2866 2865 4
2867 2866 4
1308 1348 4
2868 2867 4
1348 1388 4
1388 1428 4
1428 1468 4
1468 1508 4
1508 1548 4
1548 1588 4
281 241 5
282 281 5
322 282 5
362 322 5
1962 362 5
1963 1962 5
2003 1963 5
2043 2003 5
2083 2043 5
2123 2083 5
2163 2123 5
2203 2163 5
2243 2203 5
2283 2243 5
2323 2283 5
2363 2323 5
2364 2363 5
2404 2364 5
2444 2404 5
2484 2444 5
2524 2484 5
1004 2604 5
2564 2524 5
1044 1004 5
2604 2564 5
1082 1081 5
1083 1082 5
1084 1044 5
1084 1083 5
1124 1084 5
1164 1124 5
1204 1164 5
1205 1204 5
1206 1205 5
1207 1206 5
1208 1207 5
1248 1208 5
1288 1248 5
1328 1288 5
1329 1328 5
1369 1329 5
1370 1369 5
1410 1370 5
1450 1410 5
1490 1450 5
1491 1490 5
1531 1491 5
1571 1531 5
1572 1571 5
1573 1572 5
1573 1574 5
1574 1575 5
1575 1576 5
1576 1577 5
1577 1578 5
1578 1579 5
1579 3179 5
1592 1593 5
3179 3180 5
3180 3181 5
3181 3182 5
3182 3183 5
3183 3184 5
3184 3185 5
3185 3186 5
3186 3187 5
3187 3188 5
3188 3189 5
3189 3190 5
3190 3191 5
3191 3192 5
3192 1592 5
120  80 6
120 160 6
159 199 6
160 159 6
199 239 6
239 279 6
279 319 6
319 359 6
359 399 6
399 439 6
439 479 6
479 480 6
480 520 6
520 2120 6
2120 2160 6
2160 2200 6
2200 2240 6
2240 2280 6
2280 2320 6
2320 2360 6
2360 760 6
2360 2400 6
2399 2439 6
2400 2399 6
2436 2476 6
2437 2436 6
2438 2437 6
2439 2438 6
2475 2515 6
2476 2475 6
2515 2555 6
2554 2594 6
2555 2554 6
2592 2632 6
2593 2592 6
2594 2593 6
2632 2672 6
2672 2712 6
2712 2752 6
2752 2792 6
2792 2832 6
2832 2872 6
2872 2912 6
2912 2952 6
2941 2981 6
2942 2941 6
2943 2942 6
2944 2943 6
2945 2944 6
2946 2945 6
2947 2946 6
2948 2947 6
2949 2948 6
2950 2949 6
2951 2950 6
2952 2951 6
1407 1447 6
2968 3008 6
2969 2968 6
2970 2969 6
2971 2970 6
2972 2971 6
2973 2972 6
2974 2973 6
2975 2974 6
2976 2975 6
2977 2976 6
2978 2977 6
2979 2978 6
2980 2979 6
2981 2980 6
1446 1486 6
1447 1446 6
3007 1407 6
3008 3007 6
1486 1526 6
1526 1566 6
1565 1564 6
1566 1565 6
 42   2 7
 43  42 7
 44  43 7
 45  44 7
 46  45 7
 47  46 7
 48  47 7
 49  48 7
 50  49 7
 51  50 7
 52  12 7
 52  51 7
 53  52 7
 54  53 7
 55  54 7
 56  55 7
 57  56 7
 22  21 7
 62  22 7
1657  57 7
1658 1657 7
1659 1658 7
1660 1659 7
1661 1660 7
1662  62 7
1662 1661 7
1663 1662 7
1664 1663 7
1665 1664 7
1666 1665 7
1667 1666 7
1668 1667 7
1708 1668 7
1709 1708 7
1710 1709 7
1711 1710 7
1712 1711 7
1752 1712 7
1753 1752 7
1754 1753 7
1755 1754 7
1756 1755 7
1757 1756 7
200 1800 7
1797 1757 7
1798 1797 7
1799 1798 7
1800 1799 7
2161 561 8
2201 2161 8
2241 2201 8
2281 2241 8
2321 2281 8
2361 2321 8
2401 2361 8
2402 2401 8
2403 2402 8
2443 2403 8
2483 2443 8
2523 2483 8
2563 2523 8
2603 2563 8
2643 2603 8
2683 2643 8
2684 2683 8
2685 2684 8
2686 2685 8
2687 2686 8
2688 2687 8
2689 2688 8
2690 2689 8
2691 2690 8
2692 2691 8
2693 2692 8
2694 2693 8
2695 2694 8
2696 2695 8
2697 2696 8
2698 2697 8
2699 2698 8
2700 2699 8
2701 2700 8
2702 2701 8
2703 2702 8
2704 2703 8
2705 2704 8
2706 2705 8
2746 2706 8
2747 2746 8
2748 2747 8
2788 2748 8
2789 2788 8
2790 2789 8
1270 2870 8
2830 2790 8
1271 1270 8
1272 1271 8
1273 1272 8
1274 1273 8
1275 1274 8
1276 1275 8
1277 1276 8
1278 1277 8
1279 1278 8
1280 1279 8
2870 2830 8
1320 1280 8
1360 1320 8
1481 1482 9
1482 1483 9
1483 1523 9
1523 1563 9
1563 3163 9
3163 3164 9
3164 3165 9
3165 3166 9
3166 3167 9
3167 3168 9
3168 1568 9
1041 1001 10
2641 1041 10
2681 2641 10
2721 2681 10
2761 2721 10
2801 2761 10
2802 2801 10
2803 2802 10
2804 2803 10
2805 2804 10
2806 2805 10
2807 2806 10
2808 2807 10
2809 2808 10
2810 2809 10
2811 2810 10
2812 2811 10
2813 2812 10
2814 2813 10
2815 2814 10
2816 2815 10
2817 2816 10
2818 2817 10
2819 2818 10
2820 2819 10
2821 2820 10
2822 2821 10
2823 2822 10
2824 2823 10
2825 2824 10
2826 2825 10
2827 2826 10
2828 2827 10
1269 2869 10
2829 2828 10
1309 1269 10
2869 2829 10
1349 1309 10
1389 1349 10
1429 1389 10
1469 1429 10
1509 1469 10
1549 1509 10
1550 1549 10
1551 1550 10
1552 1551 10
1553 1552 10
1554 1553 10
1555 1554 10
1556 1555 10
1557 1556 10
1558 1557 10
1559 1558 10
1560 1559 10
